p tw 432 2080
1 33
2 34
3 35
4 36
5 37
6 38
7 39
8 40
9 41
10 42
11 43
12 44
13 45
14 46
15 47
16 48
17 49
18 50
19 51
20 52
21 53
22 54
23 55
24 56
25 57
26 58
27 59
28 60
29 61
30 62
31 63
32 64
33 67
33 113
33 146
33 159
33 161
33 162
34 69
34 95
34 104
34 132
34 174
34 176
35 89
35 117
35 121
35 126
35 127
35 128
36 84
36 100
36 103
36 114
36 163
36 166
37 92
37 97
37 102
37 103
37 104
37 105
38 93
38 106
38 109
38 110
38 111
38 112
39 71
39 72
39 73
39 74
39 75
39 76
40 119
40 123
40 150
40 164
40 167
40 169
41 102
41 107
41 113
41 114
41 115
41 116
42 99
42 137
42 142
42 146
42 147
42 148
43 118
43 127
43 142
43 143
43 144
43 145
44 65
44 66
44 67
44 68
44 69
44 70
45 77
45 82
45 83
45 84
45 85
45 86
46 152
46 154
46 155
46 156
46 157
46 158
47 82
47 88
47 98
47 106
47 107
47 108
48 66
48 74
48 90
48 149
48 150
48 151
49 124
49 139
49 147
49 170
49 172
49 173
50 109
50 130
50 134
50 143
50 152
50 153
51 87
51 97
51 98
51 99
51 100
51 101
52 122
52 137
52 138
52 139
52 140
52 141
53 65
53 87
53 88
53 89
53 90
53 91
54 71
54 77
54 78
54 79
54 80
54 81
55 80
55 110
55 155
55 163
55 164
55 165
56 75
56 131
56 149
56 154
56 159
56 160
57 73
57 83
57 129
57 134
57 135
57 136
58 72
58 121
58 122
58 123
58 124
58 125
59 68
59 85
59 138
59 161
59 167
59 168
60 78
60 92
60 93
60 94
60 95
60 96
61 126
61 129
61 130
61 131
61 132
61 133
62 111
62 115
62 144
62 156
62 170
62 171
63 79
63 94
63 117
63 118
63 119
63 120
64 135
64 140
64 157
64 172
64 174
64 175
65 66
65 67
65 68
65 69
65 70
65 87
65 88
65 89
65 90
65 91
66 67
66 68
66 69
66 70
66 74
66 90
66 149
66 150
66 151
67 68
67 69
67 70
67 113
67 146
67 159
67 161
67 162
68 69
68 70
68 85
68 138
68 161
68 167
68 168
69 70
69 95
69 104
69 132
69 174
69 176
70 177
70 178
70 179
70 180
70 181
70 182
71 72
71 73
71 74
71 75
71 76
71 77
71 78
71 79
71 80
71 81
72 73
72 74
72 75
72 76
72 121
72 122
72 123
72 124
72 125
73 74
73 75
73 76
73 83
73 129
73 134
73 135
73 136
74 75
74 76
74 90
74 149
74 150
74 151
75 76
75 131
75 149
75 154
75 159
75 160
76 183
76 184
76 185
76 186
76 187
76 188
77 78
77 79
77 80
77 81
77 82
77 83
77 84
77 85
77 86
78 79
78 80
78 81
78 92
78 93
78 94
78 95
78 96
79 80
79 81
79 94
79 117
79 118
79 119
79 120
80 81
80 110
80 155
80 163
80 164
80 165
81 183
81 189
81 190
81 191
81 192
81 193
82 83
82 84
82 85
82 86
82 88
82 98
82 106
82 107
82 108
83 84
83 85
83 86
83 129
83 134
83 135
83 136
84 85
84 86
84 100
84 103
84 114
84 163
84 166
85 86
85 138
85 161
85 167
85 168
86 189
86 194
86 195
86 196
86 197
86 198
87 88
87 89
87 90
87 91
87 97
87 98
87 99
87 100
87 101
88 89
88 90
88 91
88 98
88 106
88 107
88 108
89 90
89 91
89 117
89 121
89 126
89 127
89 128
90 91
90 149
90 150
90 151
91 177
91 199
91 200
91 201
91 202
91 203
92 93
92 94
92 95
92 96
92 97
92 102
92 103
92 104
92 105
93 94
93 95
93 96
93 106
93 109
93 110
93 111
93 112
94 95
94 96
94 117
94 118
94 119
94 120
95 96
95 104
95 132
95 174
95 176
96 190
96 204
96 205
96 206
96 207
96 208
97 98
97 99
97 100
97 101
97 102
97 103
97 104
97 105
98 99
98 100
98 101
98 106
98 107
98 108
99 100
99 101
99 137
99 142
99 146
99 147
99 148
100 101
100 103
100 114
100 163
100 166
101 199
101 209
101 210
101 211
101 212
101 213
102 103
102 104
102 105
102 107
102 113
102 114
102 115
102 116
103 104
103 105
103 114
103 163
103 166
104 105
104 132
104 174
104 176
105 204
105 209
105 214
105 215
105 216
105 217
106 107
106 108
106 109
106 110
106 111
106 112
107 108
107 113
107 114
107 115
107 116
108 194
108 200
108 210
108 218
108 219
108 220
109 110
109 111
109 112
109 130
109 134
109 143
109 152
109 153
110 111
110 112
110 155
110 163
110 164
110 165
111 112
111 115
111 144
111 156
111 170
111 171
112 205
112 218
112 221
112 222
112 223
112 224
113 114
113 115
113 116
113 146
113 159
113 161
113 162
114 115
114 116
114 163
114 166
115 116
115 144
115 156
115 170
115 171
116 214
116 219
116 225
116 226
116 227
116 228
117 118
117 119
117 120
117 121
117 126
117 127
117 128
118 119
118 120
118 127
118 142
118 143
118 144
118 145
119 120
119 123
119 150
119 164
119 167
119 169
120 191
120 206
120 229
120 230
120 231
120 232
121 122
121 123
121 124
121 125
121 126
121 127
121 128
122 123
122 124
122 125
122 137
122 138
122 139
122 140
122 141
123 124
123 125
123 150
123 164
123 167
123 169
124 125
124 139
124 147
124 170
124 172
124 173
125 184
125 233
125 234
125 235
125 236
125 237
126 127
126 128
126 129
126 130
126 131
126 132
126 133
127 128
127 142
127 143
127 144
127 145
128 201
128 229
128 233
128 238
128 239
128 240
129 130
129 131
129 132
129 133
129 134
129 135
129 136
130 131
130 132
130 133
130 134
130 143
130 152
130 153
131 132
131 133
131 149
131 154
131 159
131 160
132 133
132 174
132 176
133 238
133 241
133 242
133 243
133 244
133 245
134 135
134 136
134 143
134 152
134 153
135 136
135 140
135 157
135 172
135 174
135 175
136 185
136 195
136 241
136 246
136 247
136 248
137 138
137 139
137 140
137 141
137 142
137 146
137 147
137 148
138 139
138 140
138 141
138 161
138 167
138 168
139 140
139 141
139 147
139 170
139 172
139 173
140 141
140 157
140 172
140 174
140 175
141 234
141 249
141 250
141 251
141 252
141 253
142 143
142 144
142 145
142 146
142 147
142 148
143 144
143 145
143 152
143 153
144 145
144 156
144 170
144 171
145 230
145 239
145 254
145 255
145 256
145 257
146 147
146 148
146 159
146 161
146 162
147 148
147 170
147 172
147 173
148 211
148 249
148 254
148 258
148 259
148 260
149 150
149 151
149 154
149 159
149 160
150 151
150 164
150 167
150 169
151 178
151 186
151 202
151 261
151 262
151 263
152 153
152 154
152 155
152 156
152 157
152 158
153 221
153 242
153 246
153 255
153 264
153 265
154 155
154 156
154 157
154 158
154 159
154 160
155 156
155 157
155 158
155 163
155 164
155 165
156 157
156 158
156 170
156 171
157 158
157 172
157 174
157 175
158 264
158 266
158 267
158 268
158 269
158 270
159 160
159 161
159 162
160 187
160 243
160 261
160 266
160 271
160 272
161 162
161 167
161 168
162 179
162 225
162 258
162 271
162 273
162 274
163 164
163 165
163 166
164 165
164 167
164 169
165 192
165 222
165 267
165 275
165 276
165 277
166 196
166 212
166 215
166 226
166 275
166 278
167 168
167 169
168 180
168 197
168 250
168 273
168 279
168 280
169 231
169 235
169 262
169 276
169 279
169 281
170 171
170 172
170 173
171 223
171 227
171 256
171 268
171 282
171 283
172 173
172 174
172 175
173 236
173 251
173 259
173 282
173 284
173 285
174 175
174 176
175 247
175 252
175 269
175 284
175 286
175 287
176 181
176 207
176 216
176 244
176 286
176 288
177 178
177 179
177 180
177 181
177 182
177 199
177 200
177 201
177 202
177 203
178 179
178 180
178 181
178 182
178 186
178 202
178 261
178 262
178 263
179 180
179 181
179 182
179 225
179 258
179 271
179 273
179 274
180 181
180 182
180 197
180 250
180 273
180 279
180 280
181 182
181 207
181 216
181 244
181 286
181 288
182 289
182 290
182 291
182 292
182 293
182 294
183 184
183 185
183 186
183 187
183 188
183 189
183 190
183 191
183 192
183 193
184 185
184 186
184 187
184 188
184 233
184 234
184 235
184 236
184 237
185 186
185 187
185 188
185 195
185 241
185 246
185 247
185 248
186 187
186 188
186 202
186 261
186 262
186 263
187 188
187 243
187 261
187 266
187 271
187 272
188 295
188 296
188 297
188 298
188 299
188 300
189 190
189 191
189 192
189 193
189 194
189 195
189 196
189 197
189 198
190 191
190 192
190 193
190 204
190 205
190 206
190 207
190 208
191 192
191 193
191 206
191 229
191 230
191 231
191 232
192 193
192 222
192 267
192 275
192 276
192 277
193 295
193 301
193 302
193 303
193 304
193 305
194 195
194 196
194 197
194 198
194 200
194 210
194 218
194 219
194 220
195 196
195 197
195 198
195 241
195 246
195 247
195 248
196 197
196 198
196 212
196 215
196 226
196 275
196 278
197 198
197 250
197 273
197 279
197 280
198 301
198 306
198 307
198 308
198 309
198 310
199 200
199 201
199 202
199 203
199 209
199 210
199 211
199 212
199 213
200 201
200 202
200 203
200 210
200 218
200 219
200 220
201 202
201 203
201 229
201 233
201 238
201 239
201 240
202 203
202 261
202 262
202 263
203 289
203 311
203 312
203 313
203 314
203 315
204 205
204 206
204 207
204 208
204 209
204 214
204 215
204 216
204 217
205 206
205 207
205 208
205 218
205 221
205 222
205 223
205 224
206 207
206 208
206 229
206 230
206 231
206 232
207 208
207 216
207 244
207 286
207 288
208 302
208 316
208 317
208 318
208 319
208 320
209 210
209 211
209 212
209 213
209 214
209 215
209 216
209 217
210 211
210 212
210 213
210 218
210 219
210 220
211 212
211 213
211 249
211 254
211 258
211 259
211 260
212 213
212 215
212 226
212 275
212 278
213 311
213 321
213 322
213 323
213 324
213 325
214 215
214 216
214 217
214 219
214 225
214 226
214 227
214 228
215 216
215 217
215 226
215 275
215 278
216 217
216 244
216 286
216 288
217 316
217 321
217 326
217 327
217 328
217 329
218 219
218 220
218 221
218 222
218 223
218 224
219 220
219 225
219 226
219 227
219 228
220 306
220 312
220 322
220 330
220 331
220 332
221 222
221 223
221 224
221 242
221 246
221 255
221 264
221 265
222 223
222 224
222 267
222 275
222 276
222 277
223 224
223 227
223 256
223 268
223 282
223 283
224 317
224 330
224 333
224 334
224 335
224 336
225 226
225 227
225 228
225 258
225 271
225 273
225 274
226 227
226 228
226 275
226 278
227 228
227 256
227 268
227 282
227 283
228 326
228 331
228 337
228 338
228 339
228 340
229 230
229 231
229 232
229 233
229 238
229 239
229 240
230 231
230 232
230 239
230 254
230 255
230 256
230 257
231 232
231 235
231 262
231 276
231 279
231 281
232 303
232 318
232 341
232 342
232 343
232 344
233 234
233 235
233 236
233 237
233 238
233 239
233 240
234 235
234 236
234 237
234 249
234 250
234 251
234 252
234 253
235 236
235 237
235 262
235 276
235 279
235 281
236 237
236 251
236 259
236 282
236 284
236 285
237 296
237 345
237 346
237 347
237 348
237 349
238 239
238 240
238 241
238 242
238 243
238 244
238 245
239 240
239 254
239 255
239 256
239 257
240 313
240 341
240 345
240 350
240 351
240 352
241 242
241 243
241 244
241 245
241 246
241 247
241 248
242 243
242 244
242 245
242 246
242 255
242 264
242 265
243 244
243 245
243 261
243 266
243 271
243 272
244 245
244 286
244 288
245 350
245 353
245 354
245 355
245 356
245 357
246 247
246 248
246 255
246 264
246 265
247 248
247 252
247 269
247 284
247 286
247 287
248 297
248 307
248 353
248 358
248 359
248 360
249 250
249 251
249 252
249 253
249 254
249 258
249 259
249 260
250 251
250 252
250 253
250 273
250 279
250 280
251 252
251 253
251 259
251 282
251 284
251 285
252 253
252 269
252 284
252 286
252 287
253 346
253 361
253 362
253 363
253 364
253 365
254 255
254 256
254 257
254 258
254 259
254 260
255 256
255 257
255 264
255 265
256 257
256 268
256 282
256 283
257 342
257 351
257 366
257 367
257 368
257 369
258 259
258 260
258 271
258 273
258 274
259 260
259 282
259 284
259 285
260 323
260 361
260 366
260 370
260 371
260 372
261 262
261 263
261 266
261 271
261 272
262 263
262 276
262 279
262 281
263 290
263 298
263 314
263 373
263 374
263 375
264 265
264 266
264 267
264 268
264 269
264 270
265 333
265 354
265 358
265 367
265 376
265 377
266 267
266 268
266 269
266 270
266 271
266 272
267 268
267 269
267 270
267 275
267 276
267 277
268 269
268 270
268 282
268 283
269 270
269 284
269 286
269 287
270 376
270 378
270 379
270 380
270 381
270 382
271 272
271 273
271 274
272 299
272 355
272 373
272 378
272 383
272 384
273 274
273 279
273 280
274 291
274 337
274 370
274 383
274 385
274 386
275 276
275 277
275 278
276 277
276 279
276 281
277 304
277 334
277 379
277 387
277 388
277 389
278 308
278 324
278 327
278 338
278 387
278 390
279 280
279 281
280 292
280 309
280 362
280 385
280 391
280 392
281 343
281 347
281 374
281 388
281 391
281 393
282 283
282 284
282 285
283 335
283 339
283 368
283 380
283 394
283 395
284 285
284 286
284 287
285 348
285 363
285 371
285 394
285 396
285 397
286 287
286 288
287 359
287 364
287 381
287 396
287 398
287 399
288 293
288 319
288 328
288 356
288 398
288 400
289 290
289 291
289 292
289 293
289 294
289 311
289 312
289 313
289 314
289 315
290 291
290 292
290 293
290 294
290 298
290 314
290 373
290 374
290 375
291 292
291 293
291 294
291 337
291 370
291 383
291 385
291 386
292 293
292 294
292 309
292 362
292 385
292 391
292 392
293 294
293 319
293 328
293 356
293 398
293 400
294 421
295 296
295 297
295 298
295 299
295 300
295 301
295 302
295 303
295 304
295 305
296 297
296 298
296 299
296 300
296 345
296 346
296 347
296 348
296 349
297 298
297 299
297 300
297 307
297 353
297 358
297 359
297 360
298 299
298 300
298 314
298 373
298 374
298 375
299 300
299 355
299 373
299 378
299 383
299 384
300 426
301 302
301 303
301 304
301 305
301 306
301 307
301 308
301 309
301 310
302 303
302 304
302 305
302 316
302 317
302 318
302 319
302 320
303 304
303 305
303 318
303 341
303 342
303 343
303 344
304 305
304 334
304 379
304 387
304 388
304 389
305 411
306 307
306 308
306 309
306 310
306 312
306 322
306 330
306 331
306 332
307 308
307 309
307 310
307 353
307 358
307 359
307 360
308 309
308 310
308 324
308 327
308 338
308 387
308 390
309 310
309 362
309 385
309 391
309 392
310 420
311 312
311 313
311 314
311 315
311 321
311 322
311 323
311 324
311 325
312 313
312 314
312 315
312 322
312 330
312 331
312 332
313 314
313 315
313 341
313 345
313 350
313 351
313 352
314 315
314 373
314 374
314 375
315 412
316 317
316 318
316 319
316 320
316 321
316 326
316 327
316 328
316 329
317 318
317 319
317 320
317 330
317 333
317 334
317 335
317 336
318 319
318 320
318 341
318 342
318 343
318 344
319 320
319 328
319 356
319 398
319 400
320 405
321 322
321 323
321 324
321 325
321 326
321 327
321 328
321 329
322 323
322 324
322 325
322 330
322 331
322 332
323 324
323 325
323 361
323 366
323 370
323 371
323 372
324 325
324 327
324 338
324 387
324 390
325 414
326 327
326 328
326 329
326 331
326 337
326 338
326 339
326 340
327 328
327 329
327 338
327 387
327 390
328 329
328 356
328 398
328 400
329 428
330 331
330 332
330 333
330 334
330 335
330 336
331 332
331 337
331 338
331 339
331 340
332 418
333 334
333 335
333 336
333 354
333 358
333 367
333 376
333 377
334 335
334 336
334 379
334 387
334 388
334 389
335 336
335 339
335 368
335 380
335 394
335 395
336 427
337 338
337 339
337 340
337 370
337 383
337 385
337 386
338 339
338 340
338 387
338 390
339 340
339 368
339 380
339 394
339 395
340 424
341 342
341 343
341 344
341 345
341 350
341 351
341 352
342 343
342 344
342 351
342 366
342 367
342 368
342 369
343 344
343 347
343 374
343 388
343 391
343 393
344 402
345 346
345 347
345 348
345 349
345 350
345 351
345 352
346 347
346 348
346 349
346 361
346 362
346 363
346 364
346 365
347 348
347 349
347 374
347 388
347 391
347 393
348 349
348 363
348 371
348 394
348 396
348 397
349 407
350 351
350 352
350 353
350 354
350 355
350 356
350 357
351 352
351 366
351 367
351 368
351 369
352 430
353 354
353 355
353 356
353 357
353 358
353 359
353 360
354 355
354 356
354 357
354 358
354 367
354 376
354 377
355 356
355 357
355 373
355 378
355 383
355 384
356 357
356 398
356 400
357 404
358 359
358 360
358 367
358 376
358 377
359 360
359 364
359 381
359 396
359 398
359 399
360 408
361 362
361 363
361 364
361 365
361 366
361 370
361 371
361 372
362 363
362 364
362 365
362 385
362 391
362 392
363 364
363 365
363 371
363 394
363 396
363 397
364 365
364 381
364 396
364 398
364 399
365 413
366 367
366 368
366 369
366 370
366 371
366 372
367 368
367 369
367 376
367 377
368 369
368 380
368 394
368 395
369 422
370 371
370 372
370 383
370 385
370 386
371 372
371 394
371 396
371 397
372 423
373 374
373 375
373 378
373 383
373 384
374 375
374 388
374 391
374 393
375 417
376 377
376 378
376 379
376 380
376 381
376 382
377 415
378 379
378 380
378 381
378 382
378 383
378 384
379 380
379 381
379 382
379 387
379 388
379 389
380 381
380 382
380 394
380 395
381 382
381 396
381 398
381 399
382 419
383 384
383 385
383 386
384 409
385 386
385 391
385 392
386 432
387 388
387 389
387 390
388 389
388 391
388 393
389 410
390 429
391 392
391 393
392 406
393 425
394 395
394 396
394 397
395 403
396 397
396 398
396 399
397 416
398 399
398 400
399 401
400 431
